proyfinal/src/viki/013/andrea/andrea-localstore/experimentInOfficeAgust.take6/worker_2/4e2d81be-2be5-476b-a414-52dd30e73ad6.als.cnf.out
Reading from standard input... Use '--help' for help.
============================[ Problem Statistics ]=============================
|                                                                             |
|  Number of variables:         87638                                         |
|  Number of clauses:          161767                                         |
|  Parse time:                   0.03 s                                       |
|                                                                             |
============================[ Search Statistics ]==============================
| Conflicts |          ORIGINAL         |          LEARNT          | Progress |
|           |    Vars  Clauses Literals |    Limit  Clauses Lit/Cl |          |
===============================================================================
|       100 |   63292   108444   270937 |    39762      100     54 | 27.780 % |
|       250 |   63292   108444   270937 |    43739      250     41 | 27.780 % |
|       475 |   63292   108444   270937 |    48112      475     38 | 27.780 % |
|       812 |   63273   108400   270847 |    52924      809     49 | 27.802 % |
|      1318 |   63273   108326   270676 |    58216     1315     97 | 27.802 % |
|      2077 |   63273   108326   270676 |    64038     2074     99 | 27.802 % |
|      3216 |   63273   108326   270676 |    70442     3213     87 | 27.802 % |
|      4924 |   63254   108250   270496 |    77486     4920     79 | 27.824 % |
|      7486 |   63236   108176   270325 |    85235     7481     97 | 27.844 % |
|     11330 |   52255    74296   186755 |    93758    10689    103 | 40.374 % |
|     17096 |   51230    73699   185361 |   103134    15956     86 | 41.544 % |
===============================================================================
restarts              : 63
conflicts             : 17566          (7622 /sec)
decisions             : 67084          (0.00 % random) (29107 /sec)
propagations          : 21999861       (9545444 /sec)
conflict literals     : 1460939        (48.54 % deleted)
Memory used           : 31.13 MB
CPU time              : 2.30475 s

UNSATISFIABLE
